
Gurobi 9.5.0 (linux64) logging started Tue Nov  7 13:23:40 2023

Set parameter LogFile to value "/lustre1/scratch/348/vsc34888/JointResearch/05.Models/06.Benchmarking/E.Representative_days_based_on_Line_Benefits_OptModel/3-bus_ByStages_nc10/openStarNet_3-bus_ByStages_nc10.log"
Set parameter Method to value 2
Set parameter MIPFocus to value 1
Set parameter Presolve to value 2
Set parameter RINS to value 100
Set parameter MIPGap to value 0.01
Set parameter Threads to value 36
Set parameter TimeLimit to value 604800
Set parameter IterationLimit to value 760000000
Gurobi Optimizer version 9.5.0 build v9.5.0rc5 (linux64)
Thread count: 36 physical cores, 36 logical processors, using up to 36 threads
Optimize a model with 663 rows, 310 columns and 1915 nonzeros
Model fingerprint: 0x36180f67
Variable types: 301 continuous, 9 integer (9 binary)
Coefficient statistics:
  Matrix range     [1e-02, 2e+03]
  Objective range  [1e+00, 1e+00]
  Bounds range     [1e-04, 2e+00]
  RHS range        [1e-04, 1e+00]
Presolve removed 243 rows and 74 columns
Presolve time: 0.00s
Presolved: 420 rows, 236 columns, 1487 nonzeros
Variable types: 227 continuous, 9 integer (9 binary)
Found heuristic solution: objective 80.2412175
Root relaxation presolved: 420 rows, 236 columns, 1487 nonzeros

Root barrier log...

Ordering time: 0.00s

Barrier statistics:
 AA' NZ     : 9.840e+03
 Factor NZ  : 4.681e+04 (roughly 1 MB of memory)
 Factor Ops : 6.969e+06 (less than 1 second per iteration)
 Threads    : 1

                  Objective                Residual
Iter       Primal          Dual         Primal    Dual     Compl     Time
   0   3.86753874e+05 -5.11358079e+07  1.46e+01 4.31e+02  9.38e+04     0s
   1   1.67215373e+04 -1.00555843e+06  7.34e-01 5.82e-11  2.58e+03     0s
   2   1.46256576e+03 -6.23064948e+05  5.56e-02 6.18e-11  8.26e+02     0s
   3   7.31848120e+02 -1.76166892e+04  7.05e-04 2.41e-11  2.21e+01     0s
   4   2.46612952e+02 -1.24135306e+03  1.65e-10 8.37e-12  1.79e+00     0s
   5   1.05439603e+02 -1.03334596e+02  1.45e-10 5.46e-12  2.51e-01     0s
   6   7.94282745e+01  5.96484444e+01  9.73e-11 3.64e-12  2.38e-02     0s
   7   7.25766254e+01  6.70694939e+01  5.13e-11 3.64e-12  6.62e-03     0s
   8   7.11928504e+01  7.07130071e+01  4.13e-10 3.64e-12  5.77e-04     0s
   9   7.10045951e+01  7.09661366e+01  6.62e-09 3.64e-12  4.62e-05     0s
  10   7.09735516e+01  7.09735080e+01  5.06e-10 7.28e-12  5.24e-08     0s
  11   7.09735204e+01  7.09735204e+01  3.91e-13 3.64e-12  5.30e-14     0s

Barrier solved model in 11 iterations and 0.04 seconds (0.02 work units)
Optimal objective 7.09735204e+01


Root relaxation: objective 7.097352e+01, 45 iterations, 0.03 seconds (0.01 work units)

    Nodes    |    Current Node    |     Objective Bounds      |     Work
 Expl Unexpl |  Obj  Depth IntInf | Incumbent    BestBd   Gap | It/Node Time

     0     0   70.97352    0    3   80.24122   70.97352  11.5%     -    0s
H    0     0                      71.3382579   70.97352  0.51%     -    0s

Cutting planes:
  MIR: 12

Explored 1 nodes (45 simplex iterations) in 0.05 seconds (0.02 work units)
Thread count was 36 (of 36 available processors)

Solution count 2: 71.3383 80.2412 

Optimal solution found (tolerance 1.00e-02)
Best objective 7.133825794155e+01, best bound 7.097352043937e+01, gap 0.5113%

Gurobi 9.5.0 (linux64) logging started Tue Nov  7 13:23:40 2023

Set parameter LogFile to value "/lustre1/scratch/348/vsc34888/JointResearch/05.Models/06.Benchmarking/E.Representative_days_based_on_Line_Benefits_OptModel/3-bus_ByStages_nc10/openStarNet_3-bus_ByStages_nc10.log"
Set parameter Method to value 2
Set parameter MIPFocus to value 1
Set parameter Presolve to value 2
Set parameter RINS to value 100
Set parameter MIPGap to value 0.01
Set parameter Threads to value 36
Set parameter TimeLimit to value 604800
Set parameter IterationLimit to value 760000000
No parameters matching 'relax_integrality' found
Gurobi Optimizer version 9.5.0 build v9.5.0rc5 (linux64)
Thread count: 36 physical cores, 36 logical processors, using up to 36 threads
Optimize a model with 663 rows, 301 columns and 1546 nonzeros
Model fingerprint: 0xac49fa32
Coefficient statistics:
  Matrix range     [1e-02, 2e+03]
  Objective range  [1e+00, 1e+00]
  Bounds range     [1e-04, 2e+00]
  RHS range        [1e-04, 1e+00]
Presolve removed 593 rows and 173 columns
Presolve time: 0.00s
Presolved: 70 rows, 128 columns, 258 nonzeros

Ordering time: 0.00s

Barrier statistics:
 AA' NZ     : 1.700e+02
 Factor NZ  : 2.800e+02
 Factor Ops : 1.400e+03 (less than 1 second per iteration)
 Threads    : 1

                  Objective                Residual
Iter       Primal          Dual         Primal    Dual     Compl     Time
   0   5.34792200e+05 -4.84366098e+07  3.78e+01 1.82e+03  2.84e+05     0s
   1   2.99239802e+04 -7.85417481e+05  2.59e+00 1.09e-11  7.86e+03     0s
   2   1.75291740e+03 -1.00130994e+05  7.76e-03 1.64e-11  4.09e+02     0s
   3   9.07692056e+02 -1.67576242e+03  4.55e-06 5.51e-12  1.01e+01     0s
   4   2.47509007e+02 -8.48852703e+02  4.02e-07 3.64e-12  4.28e+00     0s
   5   1.40483786e+02 -1.01301921e+02  6.41e-08 1.82e-12  9.44e-01     0s
   6   9.14668448e+01  3.35307501e+01  1.62e-08 1.82e-12  2.26e-01     0s
   7   7.46806597e+01  6.50242398e+01  3.92e-09 3.64e-12  3.77e-02     0s
   8   7.15230835e+01  7.11001802e+01  4.34e-10 3.64e-12  1.65e-03     0s
   9   7.13389297e+01  7.13365704e+01  3.13e-10 7.28e-12  9.22e-06     0s
  10   7.13382586e+01  7.13382562e+01  3.27e-10 3.64e-12  9.23e-09     0s
  11   7.13382579e+01  7.13382579e+01  6.76e-11 2.27e-13  9.23e-15     0s

Barrier solved model in 11 iterations and 0.00 seconds (0.00 work units)
Optimal objective 7.13382579e+01

Crossover log...

       1 DPushes remaining with DInf 0.0000000e+00                 0s
       0 DPushes remaining with DInf 0.0000000e+00                 0s

      10 PPushes remaining with PInf 0.0000000e+00                 0s
       0 PPushes remaining with PInf 0.0000000e+00                 0s

  Push phase complete: Pinf 0.0000000e+00, Dinf 6.2172489e-14      0s

Iteration    Objective       Primal Inf.    Dual Inf.      Time
      14    7.1338258e+01   0.000000e+00   0.000000e+00      0s

Solved in 14 iterations and 0.00 seconds (0.00 work units)
Optimal objective  7.133825794e+01
